11
[[-1, 18980, 0, 16594, 0, 43745, 37370, 36254, 35348, 31147, 38166],[18980, -1, 37435, 45890, 12382, 0, 0, 35730, 8771, 38299, 0],[0, 37435, -1, 14415, 39757, 31853, 0, 16432, 0, 42055, 0],[16594, 45890, 14415, -1, 44672, 17227, 45934, 36261, 43106, 16402, 0],[0, 12382, 39757, 44672, -1, 21243, 36724, 24975, 44515, 0, 15249],[43745, 0, 31853, 17227, 21243, -1, 34341, 33051, 25756, 41351, 41422],[37370, 0, 0, 45934, 36724, 34341, -1, 30926, 31229, 29401, 30088],[36254, 35730, 16432, 36261, 24975, 33051, 30926, -1, 45211, 43397, 33826],[35348, 8771, 0, 43106, 44515, 25756, 31229, 45211, -1, 5635, 37865],[31147, 38299, 42055, 16402, 0, 41351, 29401, 43397, 5635, -1, 25927],[38166, 0, 0, 0, 15249, 41422, 30088, 33826, 37865, 25927, -1]]